30 3
1 1 2 
1 4 2
11 15 1
21 0 1
4 7 2
5 8 2
13 13 3
13 17 1
22 22 1
15 17 1
20 0 2
5 7 3
18 21 1
11 15 1
18 22 3
7 11 1
12 16 1
14 19 1
15 18 1
14 17 1
7 12 3
8 11 3
10 13 1
7 10 1
0 3 1
11 14 3
11 12 2
1 4 2
13 16 2
12 15 3
19 23 2
